Function: get_partitions took 1.4781951904296875e-05 seconds
Function: map_flows_partitions took 1.3589859008789062e-05 seconds
Building model with:
21 devices, 1 partitions and 20 flows
Using license file /home/anup/gurobi.lic
Academic license - for non-commercial use only
Function: MIP.add_frac_mem_var took 0.00031185150146484375 seconds
Function: MIP.add_coverage_constraints took 0.0004417896270751953 seconds
Function: MIP.add_accuracy_constraints took 0.00044655799865722656 seconds
Function: MIP.add_capacity_constraints took 0.0017821788787841797 seconds
Changed value of parameter TimeLimit to 120.0
   Prev: inf  Min: 0.0  Max: inf  Default: inf
--------------------------------------------------
Starting model update
Model update took: 0.00010538101196289062 s
--------------------------------------------------
Starting model optimize
Gurobi Optimizer version 9.0.0 build v9.0.0rc2 (linux64)
Optimize a model with 84 rows, 87 columns and 208 nonzeros
Model fingerprint: 0x33bc354a
Model has 2 general constraints
Variable types: 87 continuous, 0 integer (0 binary)
Coefficient statistics:
  Matrix range     [1e+00, 5e+03]
  Objective range  [1e+00, 1e+00]
  Bounds range     [1e+00, 3e+04]
  RHS range        [1e+00, 1e+00]

---------------------------------------------------------------------------
Multi-objectives: starting optimization with 4 objectives ... 
---------------------------------------------------------------------------

Multi-objectives: applying initial presolve ...
---------------------------------------------------------------------------

Presolve removed 43 rows and 23 columns
Presolve time: 0.00s
Presolved: 41 rows and 64 columns
---------------------------------------------------------------------------

Multi-objectives: optimize objective 1 (tot_mem_CPU) ...
---------------------------------------------------------------------------

Presolve removed 0 rows and 2 columns
Presolve time: 0.00s
Presolved: 41 rows, 62 columns, 140 nonzeros
Presolved model has 20 SOS constraint(s)
Variable types: 42 continuous, 20 integer (20 binary)

Root relaxation: objective 3.944789e+03, 21 iterations, 0.00 seconds

    Nodes    |    Current Node    |     Objective Bounds      |     Work
 Expl Unexpl |  Obj  Depth IntInf | Incumbent    BestBd   Gap | It/Node Time

*    0     0               0    3944.7890625 3944.78906  0.00%     -    0s

Explored 0 nodes (21 simplex iterations) in 0.00 seconds
Thread count was 8 (of 8 available processors)

Solution count 1: 3944.79 

Optimal solution found (tolerance 1.00e-04)
Best objective 3.944789062500e+03, best bound 3.944789062500e+03, gap 0.0000%
---------------------------------------------------------------------------

Multi-objectives: optimize objective 2 (CPU_mem_load) ...
---------------------------------------------------------------------------


Loaded user MIP start with objective 3944.79


Explored 0 nodes (0 simplex iterations) in 0.00 seconds
Thread count was 1 (of 8 available processors)

Solution count 1: 3944.79 

Optimal solution found (tolerance 1.00e-04)
Best objective 3.944789062500e+03, best bound 3.944789062500e+03, gap 0.0000%
---------------------------------------------------------------------------

Multi-objectives: optimize objective 3 (tot_mem_P4) ...
---------------------------------------------------------------------------


Loaded user MIP start with objective 11520

Presolve removed 2 rows and 3 columns
Presolve time: 0.00s
Presolved: 41 rows, 61 columns, 120 nonzeros
Presolved model has 20 SOS constraint(s)
Variable types: 41 continuous, 20 integer (20 binary)

Root relaxation: objective 1.151606e+04, 14 iterations, 0.00 seconds

    Nodes    |    Current Node    |     Objective Bounds      |     Work
 Expl Unexpl |  Obj  Depth IntInf | Incumbent    BestBd   Gap | It/Node Time

*    0     0               0    11516.055201 11516.0552  0.00%     -    0s

Explored 0 nodes (14 simplex iterations) in 0.00 seconds
Thread count was 8 (of 8 available processors)

Solution count 2: 11516.1 11520 

Optimal solution found (tolerance 1.00e-04)
Best objective 1.151605520094e+04, best bound 1.151605520094e+04, gap 0.0000%
---------------------------------------------------------------------------

Multi-objectives: optimize objective 4 (P4_mem_load) ...
---------------------------------------------------------------------------


Loaded user MIP start with objective 576

Presolve removed 2 rows and 3 columns
Presolve time: 0.00s
Presolved: 42 rows, 61 columns, 140 nonzeros
Presolved model has 20 SOS constraint(s)
Variable types: 41 continuous, 20 integer (20 binary)

Root relaxation: objective 5.758028e+02, 22 iterations, 0.00 seconds

    Nodes    |    Current Node    |     Objective Bounds      |     Work
 Expl Unexpl |  Obj  Depth IntInf | Incumbent    BestBd   Gap | It/Node Time

*    0     0               0     575.8027600  575.80276  0.00%     -    0s

Explored 0 nodes (22 simplex iterations) in 0.01 seconds
Thread count was 8 (of 8 available processors)

Solution count 2: 575.803 576 

Optimal solution found (tolerance 1.00e-04)
Best objective 5.758027600469e+02, best bound 5.758027600469e+02, gap 0.0000%

---------------------------------------------------------------------------
Multi-objectives: solved in 0.01 seconds, solution count 3

Model optimize took: 0.0066814422607421875 seconds
--------------------------------------------------

Solution quality statistics for model UnivmonGreedy :
  Maximum violation:
    Bound       : 0.00000000e+00
    Constraint  : 3.63797881e-12 (tot_mem)
    Integrality : 0.00000000e+00

Sketch (0) (cm: eps0: 6.25e-06, del0: 0.05, min_mem: 1698.9296875)
Par: 1, Rows: 3
(0.113,18)    (0.113,3)    (0.113,8)    (0.113,14)    (0.113,19)    (0.113,4)    (0.113,9)    (0.113,15)    (0.774,20)    (0.113,5)    (0.113,10)    (0.113,0)    (0.113,6)    (0.113,11)    (0.113,16)    (0.113,1)    (0.113,7)    (0.113,12)    (0.113,17)    (0.113,2)    (0.113,13)    
Total frac: 3.034

Device (0) P4_0:
Rows total: 0.33892088900640593
Mem total: 575.8027600468754

Device (1) P4_1:
Rows total: 0.33892088900640593
Mem total: 575.8027600468754

Device (2) P4_2:
Rows total: 0.33892088900640593
Mem total: 575.8027600468754

Device (3) P4_3:
Rows total: 0.33892088900640593
Mem total: 575.8027600468754

Device (4) P4_4:
Rows total: 0.33892088900640593
Mem total: 575.8027600468754

Device (5) P4_5:
Rows total: 0.33892088900640593
Mem total: 575.8027600468754

Device (6) P4_6:
Rows total: 0.33892088900640593
Mem total: 575.8027600468754

Device (7) P4_7:
Rows total: 0.33892088900640593
Mem total: 575.8027600468754

Device (8) P4_8:
Rows total: 0.33892088900640593
Mem total: 575.8027600468754

Device (9) P4_9:
Rows total: 0.33892088900640593
Mem total: 575.8027600468754

Device (10) P4_10:
Rows total: 0.33892088900640593
Mem total: 575.8027600468754

Device (11) P4_11:
Rows total: 0.33892088900640593
Mem total: 575.8027600468754

Device (12) P4_12:
Rows total: 0.33892088900640593
Mem total: 575.8027600468754

Device (13) P4_13:
Rows total: 0.33892088900640593
Mem total: 575.8027600468754

Device (14) P4_14:
Rows total: 0.33892088900640593
Mem total: 575.8027600468754

Device (15) P4_15:
Rows total: 0.33892088900640593
Mem total: 575.8027600468754

Device (16) P4_16:
Rows total: 0.33892088900640593
Mem total: 575.8027600468754

Device (17) P4_17:
Rows total: 0.33892088900640593
Mem total: 575.8027600468754

Device (18) P4_18:
Rows total: 0.33892088900640593
Mem total: 575.8027600468754

Device (19) P4_19:
Rows total: 0.33892088900640593
Mem total: 575.8027600468754

Device (20) CPU_1:
Rows total: 2.322158221987188
Mem total: 3945.183542406249
--------------------------------------------------
Changed value of parameter NonConvex to 2
   Prev: -1  Min: -1  Max: 2  Default: -1

Throughput: 87.49999999999999 Mpps, ns per packet: 11.42857142857143
Resources: 312.0940109191215
Used Cores: 6.9999999999999964, Total CPUS: 1, Switch Memory: 11516.055200937513

Sketch (0) (cm: eps0: 6.25e-06, del0: 0.05, min_mem: 1698.9296875)
Par: 1, Rows: 3
(0.113,18)    (0.113,3)    (0.113,8)    (0.113,14)    (0.113,19)    (0.113,4)    (0.113,9)    (0.113,15)    (0.774,20)    (0.113,5)    (0.113,10)    (0.113,0)    (0.113,6)    (0.113,11)    (0.113,16)    (0.113,1)    (0.113,7)    (0.113,12)    (0.113,17)    (0.113,2)    (0.113,13)    
Total frac: 3.034

Device (0) P4_0:
Rows total: 0.33892088900640593
Mem total: 575.8027600468754
Throughput: 148.0

Device (1) P4_1:
Rows total: 0.33892088900640593
Mem total: 575.8027600468754
Throughput: 148.0

Device (2) P4_2:
Rows total: 0.33892088900640593
Mem total: 575.8027600468754
Throughput: 148.0

Device (3) P4_3:
Rows total: 0.33892088900640593
Mem total: 575.8027600468754
Throughput: 148.0

Device (4) P4_4:
Rows total: 0.33892088900640593
Mem total: 575.8027600468754
Throughput: 148.0

Device (5) P4_5:
Rows total: 0.33892088900640593
Mem total: 575.8027600468754
Throughput: 148.0

Device (6) P4_6:
Rows total: 0.33892088900640593
Mem total: 575.8027600468754
Throughput: 148.0

Device (7) P4_7:
Rows total: 0.33892088900640593
Mem total: 575.8027600468754
Throughput: 148.0

Device (8) P4_8:
Rows total: 0.33892088900640593
Mem total: 575.8027600468754
Throughput: 148.0

Device (9) P4_9:
Rows total: 0.33892088900640593
Mem total: 575.8027600468754
Throughput: 148.0

Device (10) P4_10:
Rows total: 0.33892088900640593
Mem total: 575.8027600468754
Throughput: 148.0

Device (11) P4_11:
Rows total: 0.33892088900640593
Mem total: 575.8027600468754
Throughput: 148.0

Device (12) P4_12:
Rows total: 0.33892088900640593
Mem total: 575.8027600468754
Throughput: 148.0

Device (13) P4_13:
Rows total: 0.33892088900640593
Mem total: 575.8027600468754
Throughput: 148.0

Device (14) P4_14:
Rows total: 0.33892088900640593
Mem total: 575.8027600468754
Throughput: 148.0

Device (15) P4_15:
Rows total: 0.33892088900640593
Mem total: 575.8027600468754
Throughput: 148.0

Device (16) P4_16:
Rows total: 0.33892088900640593
Mem total: 575.8027600468754
Throughput: 148.0

Device (17) P4_17:
Rows total: 0.33892088900640593
Mem total: 575.8027600468754
Throughput: 148.0

Device (18) P4_18:
Rows total: 0.33892088900640593
Mem total: 575.8027600468754
Throughput: 148.0

Device (19) P4_19:
Rows total: 0.33892088900640593
Mem total: 575.8027600468754
Throughput: 148.0

Device (20) CPU_1:
cores_sketch: 2.0, cores_dpdk: 4.9999999999999964
Rows total: 2.322158221987188
Mem total: 3945.183542406249
Throughput: 87.49999999999999
--------------------------------------------------
Function: MIP.solve took 0.034056901931762695 seconds
Function: solve took 0.034404754638671875 seconds
